64449.0 46962.0 
63737.0 47392.0 
71197.0 44779.0 
67218.0 46133.0 
61195.0 47664.0 
68941.0 45993.0 
61042.0 49045.0 
71629.0 40186.0 
57641.0 49496.0 
53864.0 53789.0 
66794.0 46205.0 
53547.0 56962.0 
51954.0 70006.0 
56046.0 50772.0 
